p cnf 7230 14
1023 1388 -1728 0
-1023 -1729 0
1728 1729 0
-1723 1727 0
1725 -1727 0
-1724 1726 0
1432 -1726 0
1724 -1725 0
-1722 1723 0
-1432 1722 0
-1388 -1729 0
1025 1340 1731 0
-1340 -1731 0
-1025 -1731 0
